Value of objective function: 0.468936321922
X1                   0.0232005137698
X2                   0
X3                   0
X4                   0
X5                   0
X6                   0
X7                   0
X8                   0.151084096182
X9                   0.416325079596
X10                  0
X11                  0
X12                  0.409390310452
X13                  0.416450065855
X14                  0.052486256067
X15                  0
X16                  0

Dual values:
r_1                  0
r_2                  0
r_3                  -0.00225753956074
r_4                  0
r_5                  0
r_6                  0
r_7                  0
r_8                  0
r_9                  0
r_10                 0
r_11                 0
r_12                 0
r_13                 -0.00254775396763
r_14                 0
r_15                 0
r_16                 0
r_17                 0
r_18                 0
r_19                 0.00468469446082
r_20                 0
r_21                 0
r_22                 0
r_23                 0
r_24                 0
r_25                 0.000239319022693
r_26                 1.40874253983e-05
r_27                 0
r_28                 0
r_29                 4.66875839663e-06
